NAME : BB55.1885695.tour
COMMENT : Cost = 0_1885695
COMMENT : Found by LKH [Keld Helsgaun] Sun Apr 23 15:14:35 2017
TYPE : TOUR
DIMENSION : 114
TOUR_SECTION
1
53
17
108
16
27
72
71
82
29
84
40
54
95
26
109
81
43
98
50
105
36
91
8
63
113
37
92
5
60
15
42
97
70
33
88
45
100
11
66
32
87
20
75
49
104
56
111
10
65
31
86
18
73
6
61
112
22
77
25
80
41
96
55
110
3
58
21
76
52
107
19
74
34
13
68
89
9
64
38
93
28
83
114
12
67
39
94
7
62
44
99
35
90
51
47
24
102
4
59
106
79
46
101
23
78
14
69
30
85
48
103
2
57
-1
EOF
